N = 10;
H = 5;
T = 2;

avail = array3d(1..N, 1..H, 1..T, [0, 1, 6, 5, 10, 1, 0, 2, 4, 6, 1, 0, 10, 1, 4, 1, 2, 5, 3, 9, 9, 4, 4, 10, 9, 10, 7, 8, 8, 8, 9, 10, 7, 10, 2, 8, 8, 7, 5, 7, 8, 2, 4, 9, 7, 4, 9, 1, 8, 0, 4, 9, 10, 10, 3, 9, 10, 9, 2, 2, 1, 10, 8, 0, 4, 8, 0, 7, 5, 5, 7, 1, 9, 2, 10, 10, 0, 3, 1, 0, 8, 4, 9, 10, 2, 10, 3, 3, 7, 5, 1, 6, 10, 3, 7, 4, 3, 5, 6, 3]);

r = array2d(1..H, 1..T, [3, 0, 3, 2, 4, 4, 2, 2, 3, 5]);
